(set-logic QF_SLIA)
(set-option :produce-models true)
(declare-fun x () String)
(assert (str.in_re x (re.++ (str.to_re "46") (re.opt (re.++ (str.to_re "0123") (re.opt (re.union (re.range "6" "8") (re.range "0" "5"))))) (str.to_re "4949") (re.* (re.range "0" "8")) (re.+ (re.++ (str.to_re "10762") (re.+ (re.union (re.range "7" "9") (re.range "2" "8"))))))))
(assert (= (mod (mod (str.to_int x) 197) 105) 66))
(assert (< (str.len x) 100))
(check-sat)
(get-model)